  6
Lattice="6.3501265308 .0000000000 .0000000000 .0000000000 6.3501265308 .0000000000 .0000000000 .0000000000 6.3501265308" Properties=species:S:1:pos:R:3 pbc="T T T"
C       0.667169348844     -0.000000470532      0.000000032389
H       1.237181448980      0.928811722236      0.000000018814
H       1.237181225313     -0.928811089934      0.000000019651
C      -0.667168637785     -0.000000037752      0.000000026837
H      -1.237181265159      0.928811492657      0.000000034347
H      -1.237181119685     -0.928811334135      0.000000035954
